SDVRP instances/custom_instances/p02_3_split0.vrp
NAME:p02_3_split
BEST_KNOWN: 0
COMMENT: 0
DIMENSION: 408
CAPACITY: 140
EDGE_WEIGHT_FORMAT: FUNCTION
EDGE_WEIGHT_TYPE: EXACT_2D
NODE_COORD_SECTION
1 0.00000 0.00000
2 19 49
3 19 49
4 19 49
5 19 49
6 19 49
7 19 49
8 -36 21
9 -36 21
10 -36 21
11 -36 21
12 -36 21
13 -24 5
14 -24 5
15 -24 5
16 -24 5
17 -19 20
18 -19 20
19 -19 20
20 -19 20
21 -19 20
22 -18 -40
23 -18 -40
24 -18 -40
25 -18 -40
26 -18 -40
27 -18 -40
28 -18 -40
29 -49 -40
30 -49 -40
31 -49 -40
32 -49 -40
33 -49 -40
34 -49 -40
35 -25 -39
36 -25 -39
37 -25 -39
38 -25 -39
39 -46 -41
40 -46 -41
41 -46 -41
42 -46 -41
43 39 15
44 39 15
45 39 15
46 39 15
47 39 15
48 39 15
49 39 15
50 -7 -37
51 -7 -37
52 -7 -37
53 -7 -37
54 -31 -20
55 -31 -20
56 -31 -20
57 -31 -20
58 -31 -20
59 -31 -20
60 0 -37
61 0 -37
62 0 -37
63 0 -37
64 0 -37
65 0 -37
66 0 -37
67 -44 -39
68 -44 -39
69 -44 -39
70 -44 -39
71 -44 -39
72 -44 -39
73 -44 -39
74 -44 -39
75 -2 8
76 -2 8
77 -2 8
78 -2 8
79 -2 8
80 -2 8
81 -2 8
82 -2 8
83 -2 8
84 -46 21
85 -46 21
86 -46 21
87 -46 21
88 -3 -15
89 -3 -15
90 -19 -48
91 -19 -48
92 -19 -48
93 -19 -48
94 -19 -48
95 -19 -48
96 -19 -48
97 16 33
98 16 33
99 16 33
100 16 33
101 16 33
102 16 33
103 16 33
104 -41 27
105 -41 27
106 -41 27
107 -41 27
108 -41 27
109 -41 27
110 -41 27
111 7 -26
112 7 -26
113 7 -26
114 7 -26
115 7 -26
116 7 -26
117 -38 50
118 -38 50
119 -42 44
120 -42 44
121 -42 44
122 -42 44
123 -42 44
124 -9 7
125 -9 7
126 -46 -37
127 -46 -37
128 -46 -37
129 -46 -37
130 -46 -37
131 -46 -37
132 27 -47
133 27 -47
134 27 -47
135 27 -47
136 27 -47
137 27 -47
138 27 -47
139 -13 -27
140 -13 -27
141 -13 -27
142 -13 -27
143 -11 -30
144 -11 -30
145 -11 -30
146 -11 -30
147 -11 -30
148 -11 -30
149 -11 -30
150 -26 -38
151 -26 -38
152 -26 -38
153 -26 -38
154 -26 -38
155 -26 -38
156 -9 -17
157 -9 -17
158 -9 -17
159 -9 -17
160 -9 -17
161 -9 -17
162 -9 -17
163 -6 5
164 -6 5
165 11 10
166 11 10
167 11 10
168 11 10
169 11 10
170 11 10
171 11 10
172 46 -44
173 46 -44
174 46 -44
175 46 -44
176 6 -10
177 6 -10
178 6 -10
179 6 -10
180 6 -10
181 -18 -29
182 -18 -29
183 -18 -29
184 47 2
185 28 -22
186 28 -22
187 28 -22
188 28 -22
189 28 -22
190 28 -22
191 28 -22
192 28 -22
193 -2 -12
194 -2 -12
195 -37 2
196 -37 2
197 -37 2
198 -37 2
199 46 -33
200 46 -33
201 46 -33
202 46 -33
203 46 -33
204 46 -33
205 46 -33
206 46 -33
207 46 -33
208 -46 6
209 -46 6
210 -46 6
211 -46 6
212 -46 6
213 -46 6
214 -46 6
215 -46 6
216 -20 44
217 -20 44
218 -20 44
219 -20 44
220 -20 44
221 -20 44
222 -9 -41
223 -9 -41
224 -9 -41
225 -9 -41
226 -9 -41
227 -9 -41
228 -9 -41
229 -9 -41
230 -42 48
231 -42 48
232 -42 48
233 -42 48
234 -42 48
235 -37 13
236 -37 13
237 -37 13
238 -37 13
239 -37 13
240 -37 13
241 -37 13
242 35 -32
243 35 -32
244 35 -32
245 35 -32
246 35 -32
247 35 -32
248 35 -32
249 34 -17
250 34 -17
251 34 -17
252 34 -17
253 34 -17
254 34 -17
255 34 -17
256 34 -17
257 -30 6
258 -30 6
259 -30 6
260 -30 6
261 21 -9
262 21 -9
263 21 -9
264 21 -9
265 21 -9
266 21 -9
267 2 41
268 2 41
269 2 41
270 2 41
271 -32 21
272 -32 21
273 -32 21
274 -32 21
275 -32 21
276 -32 21
277 -32 21
278 -32 21
279 -41 32
280 -41 32
281 -41 32
282 -41 32
283 -41 32
284 -41 32
285 -1 -26
286 -1 -26
287 -1 -26
288 -1 -26
289 -1 -26
290 -16 5
291 -16 5
292 -16 5
293 -16 5
294 22 -27
295 22 -27
296 22 -27
297 22 -27
298 22 -27
299 22 -27
300 22 -27
301 -21 -34
302 -21 -34
303 -21 -34
304 -21 -34
305 -21 -34
306 -21 -34
307 -21 -34
308 -21 -34
309 -40 -13
310 -40 -13
311 -40 -13
312 -40 -13
313 -40 -13
314 13 0
315 13 0
316 13 0
317 13 0
318 13 0
319 13 0
320 36 22
321 36 22
322 36 22
323 36 22
324 36 22
325 36 22
326 36 22
327 -10 -8
328 -10 -8
329 -10 -8
330 -10 -8
331 -15 43
332 -15 43
333 -15 43
334 -15 43
335 -15 43
336 -15 43
337 -15 43
338 45 43
339 45 43
340 45 43
341 -3 -43
342 -3 -43
343 -3 -43
344 -3 -43
345 -3 -43
346 -3 -43
347 -4 8
348 -4 8
349 -4 8
350 -4 8
351 -4 8
352 -4 8
353 -4 8
354 -25 -18
355 -13 -15
356 -13 -15
357 -13 -15
358 9 -37
359 9 -37
360 9 -37
361 -50 -36
362 -50 -36
363 -50 -36
364 -50 -36
365 -50 -36
366 -50 -36
367 16 -34
368 16 -34
369 16 -34
370 -37 28
371 -37 28
372 -37 28
373 -37 28
374 22 14
375 22 14
376 22 14
377 22 14
378 22 14
379 22 14
380 27 27
381 27 27
382 27 27
383 27 27
384 12 32
385 12 32
386 12 32
387 12 32
388 12 32
389 12 32
390 12 32
391 23 10
392 23 10
393 23 10
394 23 10
395 23 10
396 23 10
397 24 7
398 24 7
399 24 7
400 24 7
401 24 7
402 24 7
403 24 7
404 24 7
405 0 30
406 0 30
407 0 30
408 0 30
DEMAND_SECTION
1 0
2 14
3 1
4 1
5 1
6 1
7 1
8 28
9 7
10 1
11 1
12 1
13 28
14 14
15 7
16 1
17 28
18 14
19 1
20 1
21 1
22 28
23 7
24 1
25 1
26 1
27 1
28 1
29 28
30 28
31 7
32 1
33 1
34 1
35 28
36 14
37 7
38 1
39 28
40 14
41 1
42 1
43 28
44 28
45 1
46 1
47 1
48 1
49 1
50 28
51 7
52 1
53 1
54 28
55 1
56 1
57 1
58 1
59 1
60 14
61 7
62 1
63 1
64 1
65 1
66 1
67 28
68 28
69 7
70 1
71 1
72 1
73 1
74 1
75 28
76 28
77 7
78 1
79 1
80 1
81 1
82 1
83 1
84 28
85 1
86 1
87 1
88 28
89 28
90 14
91 7
92 1
93 1
94 1
95 1
96 1
97 14
98 7
99 1
100 1
101 1
102 1
103 1
104 28
105 1
106 1
107 1
108 1
109 1
110 1
111 14
112 1
113 1
114 1
115 1
116 1
117 28
118 7
119 28
120 28
121 7
122 1
123 1
124 28
125 1
126 28
127 14
128 7
129 1
130 1
131 1
132 28
133 1
134 1
135 1
136 1
137 1
138 1
139 28
140 28
141 7
142 1
143 14
144 1
145 1
146 1
147 1
148 1
149 1
150 28
151 7
152 1
153 1
154 1
155 1
156 28
157 28
158 1
159 1
160 1
161 1
162 1
163 28
164 14
165 28
166 28
167 7
168 1
169 1
170 1
171 1
172 14
173 7
174 1
175 1
176 14
177 7
178 1
179 1
180 1
181 28
182 14
183 1
184 28
185 28
186 7
187 1
188 1
189 1
190 1
191 1
192 1
193 28
194 1
195 28
196 14
197 7
198 1
199 28
200 14
201 7
202 1
203 1
204 1
205 1
206 1
207 1
208 28
209 14
210 7
211 1
212 1
213 1
214 1
215 1
216 28
217 28
218 1
219 1
220 1
221 1
222 28
223 7
224 1
225 1
226 1
227 1
228 1
229 1
230 28
231 7
232 1
233 1
234 1
235 28
236 7
237 1
238 1
239 1
240 1
241 1
242 28
243 14
244 1
245 1
246 1
247 1
248 1
249 28
250 28
251 7
252 1
253 1
254 1
255 1
256 1
257 28
258 7
259 1
260 1
261 28
262 28
263 1
264 1
265 1
266 1
267 28
268 14
269 7
270 1
271 28
272 14
273 1
274 1
275 1
276 1
277 1
278 1
279 28
280 28
281 7
282 1
283 1
284 1
285 28
286 14
287 7
288 1
289 1
290 28
291 28
292 7
293 1
294 28
295 1
296 1
297 1
298 1
299 1
300 1
301 28
302 28
303 7
304 1
305 1
306 1
307 1
308 1
309 28
310 14
311 7
312 1
313 1
314 28
315 28
316 7
317 1
318 1
319 1
320 14
321 7
322 1
323 1
324 1
325 1
326 1
327 28
328 14
329 1
330 1
331 28
332 14
333 1
334 1
335 1
336 1
337 1
338 28
339 7
340 1
341 28
342 14
343 7
344 1
345 1
346 1
347 28
348 28
349 7
350 1
351 1
352 1
353 1
354 28
355 28
356 1
357 1
358 28
359 28
360 7
361 14
362 1
363 1
364 1
365 1
366 1
367 28
368 7
369 1
370 28
371 28
372 1
373 1
374 28
375 28
376 1
377 1
378 1
379 1
380 28
381 14
382 1
383 1
384 28
385 7
386 1
387 1
388 1
389 1
390 1
391 28
392 28
393 7
394 1
395 1
396 1
397 28
398 7
399 1
400 1
401 1
402 1
403 1
404 1
405 28
406 14
407 1
408 1
DEPOT_SECTION
1
-1
EOF