SDVRP instances/custom_instances/p02_3_split0.sol
407 -8 279 281 280 282 283 278 370 372 369 371 276 273 274 275 -10 9 11 7 103 108 106 107 104 109 105 85 86 84 83 236 240 239 237 235 238 234 258 -12 13 15 14 272 277 270 271 18 17 16 20 19 -39 40 41 38 32 33 28 29 30 31 363 362 365 361 360 364 54 55 -50 52 49 51 227 224 228 225 223 226 222 221 341 340 343 342 344 345 -73 72 68 66 69 67 71 70 125 126 127 130 129 128 -77 74 80 79 81 78 82 76 75 348 349 346 347 351 350 352 -98 101 102 96 100 97 99 1 3 6 4 5 2 339 337 338 381 379 382 380 -114 113 115 111 112 110 367 366 368 132 136 135 137 133 134 131 297 296 294 299 293 295 298 179 175 177 -116 117 229 231 232 230 233 122 119 121 120 118 -145 142 146 147 144 143 148 139 138 140 156 155 161 -154 152 151 150 149 153 36 37 35 34 303 307 181 182 180 -159 160 158 157 141 27 22 21 26 25 24 23 90 91 94 93 95 92 89 301 300 306 305 302 304 -162 163 124 123 292 290 291 289 -168 170 167 164 165 166 169 -176 178 242 246 247 244 241 243 245 173 172 174 171 206 199 198 202 200 205 201 203 204 -183 250 249 251 254 255 253 252 248 184 186 190 188 187 189 185 191 -193 192 88 87 326 328 327 329 -196 194 195 197 214 207 208 211 210 212 209 213 256 259 257 -219 220 217 215 218 216 330 331 334 332 333 335 336 -261 260 264 263 262 265 317 314 316 313 318 315 -286 287 288 284 285 64 63 62 61 65 60 59 359 357 358 -311 309 312 310 308 58 57 53 56 353 354 355 356 -324 325 322 321 319 320 323 48 45 44 46 43 42 47 401 396 397 399 400 398 403 402 -375 378 377 373 374 376 390 393 395 394 392 391 -384 387 383 386 385 389 388 266 269 268 267 404 406 405 407 0 





OBJ=
2313.376
BEST_KNOWN=
0.000